unsat
((set-logic NIA)
(proof
(let (($x154 (exists ((q Int) (r Int) (y Int) )(! (let ((?x36 (* q00 y00)))
 (let ((?x144 (* (- 1) ?x36)))
 (let ((?x67 (* (- 1) r00)))
 (let ((?x69 (* (- 1) y00)))
 (let (($x134 (not (= (+ r ?x69 ?x67 ?x144 (* y00 (+ 1 q))) 0))))
 (let (($x320 (= (+ r ?x67 ?x144 (* y00 q)) 0)))
 (let ((?x348 (* (- 1) y)))
 (let ((?x350 (+ y00 ?x348)))
 (let (($x91 (= ?x350 0)))
 (and $x91 $x320 $x134)))))))))) :qid k!31))
 ))
 (let (($x298 (exists ((q Int) (r Int) (y Int) )(! false :qid k!31))
 ))
 (let ((@x304 (elim-unused (= $x298 false))))
 (let ((?x345 (lambda ((q Int) (r Int) (y Int) )(let ((?x36 (* q00 y00)))
 (let ((?x144 (* (- 1) ?x36)))
 (let ((?x67 (* (- 1) r00)))
 (let ((?x69 (* (- 1) y00)))
 (let (($x134 (not (= (+ r ?x69 ?x67 ?x144 (* y00 (+ 1 q))) 0))))
 (let (($x320 (= (+ r ?x67 ?x144 (* y00 q)) 0)))
 (let ((?x348 (* (- 1) y)))
 (let ((?x350 (+ y00 ?x348)))
 (let (($x91 (= ?x350 0)))
 (let (($x85 (and $x91 $x320 $x134)))
 (let (($x103 (= (+ r ?x67 (* q y00) (* (- 1) (* y00 q00))) 0)))
 (let (($x111 (not $x103)))
 (let (($x78 (= (+ y ?x69) 0)))
 (let (($x291 (and $x78 $x103 $x111)))
 (let ((@x295 (rewrite (= $x291 false))))
 (let ((@x329 (monotonicity (rewrite (= ?x350 (+ ?x348 y00))) (= $x91 (= (+ ?x348 y00) 0)))))
 (let ((@x333 (trans @x329 (rewrite (= (= (+ ?x348 y00) 0) $x78)) (= $x91 $x78))))
 (let ((@x308 (monotonicity @x333 (rewrite (= $x320 $x103)) (rewrite (= $x134 $x111)) (= $x85 $x291))))
 (trans @x308 @x295 (= $x85 false)))))))))))))))))))))
 ))
 (let ((@x354 (trans (quant-intro (proof-bind ?x345) (= $x154 $x298)) @x304 (= $x154 false))))
 (let (($x365 (exists ((q Int) (r Int) (y Int) )(! (let ((?x36 (* q00 y00)))
 (let ((?x144 (* (- 1) ?x36)))
 (let ((?x67 (* (- 1) r00)))
 (let ((?x69 (* (- 1) y00)))
 (let (($x134 (not (= (+ r ?x69 ?x67 ?x144 (* y00 (+ 1 q))) 0))))
 (let (($x320 (= (+ r ?x67 ?x144 (* y00 q)) 0)))
 (and (= (+ ?x69 y) 0) $x320 $x134))))))) :qid k!31))
 ))
 (let ((?x152 (lambda ((q Int) (r Int) (y Int) )(let ((?x36 (* q00 y00)))
 (let ((?x144 (* (- 1) ?x36)))
 (let ((?x67 (* (- 1) r00)))
 (let ((?x69 (* (- 1) y00)))
 (let (($x134 (not (= (+ r ?x69 ?x67 ?x144 (* y00 (+ 1 q))) 0))))
 (let (($x320 (= (+ r ?x67 ?x144 (* y00 q)) 0)))
 (let ((?x348 (* (- 1) y)))
 (let ((?x350 (+ y00 ?x348)))
 (let (($x91 (= ?x350 0)))
 (let (($x85 (and $x91 $x320 $x134)))
 (let (($x363 (and (= (+ ?x69 y) 0) $x320 $x134)))
 (rewrite (= $x363 $x85))))))))))))))
 ))
 (let (($x64 (exists ((q Int) (r Int) (y Int) )(! (let ((?x30 (* (- 1) y00)))
 (let ((?x42 (+ ?x30 y00)))
 (let ((?x45 (- r y00)))
 (let ((?x48 (+ q 1)))
 (let ((?x57 (* 9 ?x48 ?x45 ?x45 y00 y00)))
 (let ((?x54 (- 10)))
 (let ((?x55 (* ?x54 ?x48 ?x48)))
 (let ((?x58 (- ?x55 ?x57)))
 (let ((?x59 (* ?x58 ?x42)))
 (let (($x60 (= ?x59 0)))
 (let (($x61 (not $x60)))
 (let (($x52 (not (= (+ (- (- ?x45 r00) (* q00 y00)) (* ?x48 y00)) 0))))
 (let (($x43 (= ?x42 0)))
 (let (($x44 (not $x43)))
 (let (($x62 (or $x44 $x52 $x61)))
 (let (($x41 (= (+ (- (- r r00) (* q00 y00)) (* q y00)) 0)))
 (let (($x33 (= (+ ?x30 y) 0)))
 (and $x33 $x41 $x62)))))))))))))))))) :qid k!31))
 ))
 (let ((?x367 (lambda ((q Int) (r Int) (y Int) )(let ((?x36 (* q00 y00)))
 (let ((?x144 (* (- 1) ?x36)))
 (let ((?x67 (* (- 1) r00)))
 (let ((?x69 (* (- 1) y00)))
 (let (($x134 (not (= (+ r ?x69 ?x67 ?x144 (* y00 (+ 1 q))) 0))))
 (let (($x320 (= (+ r ?x67 ?x144 (* y00 q)) 0)))
 (let (($x363 (and (= (+ ?x69 y) 0) $x320 $x134)))
 (let ((?x30 (* (- 1) y00)))
 (let ((?x42 (+ ?x30 y00)))
 (let ((?x45 (- r y00)))
 (let ((?x48 (+ q 1)))
 (let ((?x57 (* 9 ?x48 ?x45 ?x45 y00 y00)))
 (let ((?x54 (- 10)))
 (let ((?x55 (* ?x54 ?x48 ?x48)))
 (let ((?x58 (- ?x55 ?x57)))
 (let ((?x59 (* ?x58 ?x42)))
 (let (($x60 (= ?x59 0)))
 (let (($x61 (not $x60)))
 (let (($x52 (not (= (+ (- (- ?x45 r00) ?x36) (* ?x48 y00)) 0))))
 (let (($x43 (= ?x42 0)))
 (let (($x44 (not $x43)))
 (let (($x62 (or $x44 $x52 $x61)))
 (let (($x41 (= (+ (- (- r r00) ?x36) (* q y00)) 0)))
 (let (($x33 (= (+ ?x30 y) 0)))
 (let (($x63 (and $x33 $x41 $x62)))
 (rewrite (= $x63 $x363))))))))))))))))))))))))))))
 ))
 (let ((@x65 (asserted $x64)))
 (let ((@x323 (mp (mp @x65 (quant-intro (proof-bind ?x367) (= $x64 $x365)) $x365) (rewrite (= $x365 $x365)) $x365)))
 (mp (mp @x323 (quant-intro (proof-bind ?x152) (= $x365 $x154)) $x154) @x354 false))))))))))))))

(:max-memory   3.36
 :memory       3.05
 :mk-bool-var  6
 :num-allocs   961097
 :num-checks   1
 :rlimit-count 471
 :time         0.01
 :total-time   0.02)
